NAME : local_10
TYPE : ATSP
DIMENSION : 9
EDGE_WEIGHT_TYPE : EXPLICIT
EDGE_WEIGHT_FORMAT : FULL_MATRIX
EDGE_WEIGHT_SECTION
0 652 193 839 553 334 1462 669 0 
0 0 618 10000000 10000000 477 760 10000000 652 
0 618 0 989 739 244 10000000 800 193 
0 10000000 1067 0 414 10000000 910 395 851 
0 10000000 739 414 0 863 958 385 553 
0 477 244 10000000 863 0 1106 997 334 
0 760 10000000 917 976 1082 0 10000000 1307 
0 10000000 800 395 385 997 10000000 0 669 
0 10000000 10000000 10000000 10000000 10000000 10000000 10000000 0 
EOF